
Gurobi 9.5.1 (mac64[x86]) logging started Tue Jun  7 22:33:19 2022

Set parameter LogFile to value "/Users/keyvanmajd/Documents/GitHub/NNRepLayer_v2/demos/examples/tc7_walking_example/repair_inp_out_constraint/repair_net/logs/opt_log_6_7_2022_22_32_56.log"
Gurobi Optimizer version 9.5.1 build v9.5.1rc2 (mac64[x86])
Thread count: 4 physical cores, 8 logical processors, using up to 8 threads
Optimize a model with 366 rows, 134 columns and 970 nonzeros
Model fingerprint: 0x547e79a6
Model has 101 quadratic objective terms
Coefficient statistics:
  Matrix range     [1e-02, 3e+01]
  Objective range  [6e-04, 4e-01]
  QObjective range [2e-02, 2e+00]
  Bounds range     [1e+01, 4e+01]
  RHS range        [1e-03, 2e+01]
Presolve removed 232 rows and 18 columns
Presolve time: 0.00s
Presolved: 134 rows, 116 columns, 727 nonzeros
Presolved model has 101 quadratic objective terms
Ordering time: 0.00s

Barrier statistics:
 Dense cols : 9
 AA' NZ     : 9.660e+02
 Factor NZ  : 1.436e+03
 Factor Ops : 2.220e+04 (less than 1 second per iteration)
 Threads    : 1

                  Objective                Residual
Iter       Primal          Dual         Primal    Dual     Compl     Time
   0   1.62472889e+07 -1.63682993e+07  2.86e+03 4.29e+02  9.14e+05     0s
   1   4.79874831e+06 -5.03797658e+06  1.48e+03 2.21e+02  4.79e+05     0s
   2   3.65262930e+04 -7.40905566e+05  1.36e+02 2.04e+01  6.09e+04     0s
   3   2.06980187e+01 -4.69929786e+05  2.44e+00 3.66e-01  2.72e+03     0s
   4   9.94791230e+00 -2.12152659e+05  6.97e-01 1.04e-01  9.89e+02     0s
   5   1.01026390e+01 -2.90177015e+04  2.75e-02 4.12e-03  1.09e+02     0s
   6   1.02455537e+01 -8.55243721e+01  3.38e-05 5.06e-06  3.55e-01     0s
   7   6.77766833e+00 -7.77637773e+00  4.42e-06 6.63e-07  5.39e-02     0s
   8   4.73403366e+00  1.67728538e+00  7.19e-07 1.08e-07  1.13e-02     0s
   9   4.31026212e+00  3.16692076e+00  1.61e-07 2.41e-08  4.23e-03     0s
  10   4.24431373e+00  3.77910921e+00  2.74e-08 4.11e-09  1.72e-03     0s
  11   4.20112379e+00  4.11492334e+00  3.67e-09 5.50e-10  3.19e-04     0s
  12   4.19308331e+00  4.19105454e+00  6.57e-11 9.94e-12  7.51e-06     0s
  13   4.19288973e+00  4.19287801e+00  4.81e-12 6.70e-14  4.34e-08     0s
  14   4.19288917e+00  4.19288913e+00  6.03e-11 2.19e-12  1.61e-10     0s

Barrier solved model in 14 iterations and 0.00 seconds (0.00 work units)
Optimal objective 4.19288917e+00

